
--- Job z_HR_ref.gms Start 06/30/15 12:11:38 24.4.5 r52258 WEX-VS8 x86 32bit/MS Windows
GAMS 24.4.5   Copyright (C) 1987-2015 GAMS Development. All rights reserved
Licensee: Ignacio E. Grossmann                           G150105/0001AO-GEN
          Carnegie Mellon University, Dept. of Chemical Engineering  DC9476
          License for teaching and research at degree granting institutions
--- Starting continued compilation
--- Workfile was generated under GAMS version WIN244-244
--- z_HR_ref.gms(33) 3 Mb
--- .max_time_ref.gms(1) 3 Mb
--- z_HR_ref.gms(54) 3 Mb
--- Starting execution: elapsed 0:00:00.003
--- z_HR_ref.gms(149) 3 Mb
--- Generating RMIP model prob
--- z_HR_ref.gms(154) 3 Mb
---   681 rows  313 columns  1,552 non-zeroes
---   60 discrete-columns
--- Executing CPLEX: elapsed 0:00:00.048

IBM ILOG CPLEX   24.4.5 r52258 Released May 26, 2015 VS8 x86 32bit/MS Windows 
--- GAMS/Cplex licensed for continuous and discrete problems.
Cplex 12.6.1.0

Reading data...
Starting Cplex...
Space for names approximately 0.02 Mb
Use option 'names no' to turn use of names off
Tried aggregator 1 time.
LP Presolve eliminated 124 rows and 0 columns.
Aggregator did 62 substitutions.
Reduced LP has 495 rows, 251 columns, and 1480 nonzeros.
Presolve time = 0.02 sec. (0.39 ticks)
Initializing dual steep norms . . .

Iteration log . . .
Iteration:     1   Scaled dual infeas =             0.000000
Iteration:     2   Dual objective     =             5.000000
Perturbation started.
Iteration:    53   Dual objective     =             5.000000
Iteration:   123   Dual objective     =             5.000033
Removing perturbation.
LP status(1): optimal
Cplex Time: 0.02sec (det. 2.29 ticks)

Optimal solution found.
Objective :           5.000000

--- Restarting execution
--- z_HR_ref.gms(154) 2 Mb
--- Reading solution for model prob
--- Executing after solve: elapsed 0:00:00.188
--- z_HR_ref.gms(156) 3 Mb
--- Generating MIP model prob
--- z_HR_ref.gms(158) 3 Mb
---   681 rows  313 columns  1,552 non-zeroes
---   60 discrete-columns
--- Executing CPLEX: elapsed 0:00:00.201

IBM ILOG CPLEX   24.4.5 r52258 Released May 26, 2015 VS8 x86 32bit/MS Windows 
--- GAMS/Cplex licensed for continuous and discrete problems.
Cplex 12.6.1.0

Reading data...
Starting Cplex...
Space for names approximately 0.02 Mb
Use option 'names no' to turn use of names off
Tried aggregator 2 times.
MIP Presolve eliminated 154 rows and 0 columns.
MIP Presolve modified 60 coefficients.
Aggregator did 62 substitutions.
Reduced MIP has 465 rows, 251 columns, and 1420 nonzeros.
Reduced MIP has 60 binaries, 0 generals, 0 SOSs, and 0 indicators.
Presolve time = 0.00 sec. (1.38 ticks)
Found incumbent of value 25.000000 after 0.00 sec. (2.04 ticks)
Probing time = 0.00 sec. (0.36 ticks)
Tried aggregator 1 time.
Reduced MIP has 465 rows, 251 columns, and 1420 nonzeros.
Reduced MIP has 60 binaries, 0 generals, 0 SOSs, and 0 indicators.
Presolve time = 0.00 sec. (0.72 ticks)
Probing time = 0.00 sec. (0.35 ticks)
Clique table members: 15.
MIP emphasis: balance optimality and feasibility.
MIP search method: dynamic search.
Parallel mode: none, using 1 thread.
Tried aggregator 1 time.
No LP presolve or aggregator reductions.
Presolve time = 0.00 sec. (0.17 ticks)
Initializing dual steep norms . . .

Iteration log . . .
Iteration:     1   Dual objective     =             5.000000
Perturbation started.
Iteration:    51   Dual objective     =             5.000000
Iteration:   118   Dual objective     =             5.000015
Removing perturbation.
Root relaxation solution time = 0.00 sec. (1.52 ticks)

        Nodes                                         Cuts/
   Node  Left     Objective  IInf  Best Integer    Best Bound    ItCnt     Gap

*     0+    0                           25.0000        5.0000            80.00%
Found incumbent of value 25.000000 after 0.06 sec. (5.47 ticks)
      0     0        5.0000    30       25.0000        5.0000      147   80.00%
      0     0        5.0000    15       25.0000      Cuts: 10      197   80.00%
      0     0        5.0000    30       25.0000      Cuts: 38      288   80.00%
*     0+    0                            9.0000        5.0000            44.44%
Found incumbent of value 9.000000 after 0.08 sec. (19.31 ticks)
      0     0        5.0000    17        9.0000       Cuts: 6      309   44.44%
      0     0        5.0000    23        9.0000      Cuts: 18      376   44.44%
*     0+    0                            9.0000        5.0000            44.44%
Found incumbent of value 9.000000 after 0.13 sec. (39.75 ticks)
      0     2        5.0000    23        9.0000        5.0000      376   44.44%
Elapsed time = 0.13 sec. (40.29 ticks, tree = 0.00 MB, solutions = 3)
*    80+   17                            8.0000        5.1333            35.83%
                                                      Cuts: 6                  
Found incumbent of value 8.000000 after 0.20 sec. (75.54 ticks)

Implied bound cuts applied:  5
Flow cuts applied:  6
Mixed integer rounding cuts applied:  9
Gomory fractional cuts applied:  3

Root node processing (before b&c):
  Real time             =    0.14 sec. (40.28 ticks)
Sequential b&c:
  Real time             =    0.09 sec. (50.17 ticks)
                          ------------
Total (root+branch&cut) =    0.23 sec. (90.45 ticks)
MIP status(101): integer optimal solution
Cplex Time: 0.23sec (det. 90.45 ticks)
Fixing integer variables, and solving final LP...
Tried aggregator 1 time.
LP Presolve eliminated 608 rows and 262 columns.
Aggregator did 44 substitutions.
Reduced LP has 29 rows, 7 columns, and 58 nonzeros.
Presolve time = 0.00 sec. (0.24 ticks)

Iteration log . . .
Iteration:     1   Dual infeasibility =             0.000000
Iteration:     2   Dual objective     =             5.000000
Fixed MIP status(1): optimal
Cplex Time: 0.05sec (det. 0.49 ticks)

Proven optimal solution.

MIP Solution:            8.000000    (2986 iterations, 129 nodes)
Final Solve:             8.000000    (7 iterations)

Best possible:           8.000000
Absolute gap:            0.000000
Relative gap:            0.000000

--- Restarting execution
--- z_HR_ref.gms(158) 2 Mb
--- Reading solution for model prob
--- Executing after solve: elapsed 0:00:00.560
--- z_HR_ref.gms(168) 3 Mb
*** Status: Normal completion
--- Job z_HR_ref.gms Stop 06/30/15 12:11:38 elapsed 0:00:00.567
